2638.7
2638.7
2577.0
2577.0
2577.0
2577.0
2525.2
2525.2
2525.2
2525.2
2525.2
2475.6
2475.6
2475.6
2475.6
2433.3
2433.3
2401.9
2401.9
2346.8
2346.8
2346.8
2266.7
2266.7
2266.7
2266.7
2266.7
2266.7
2263.6
2263.6
2195.6
2171.4
2170.5
2170.5
2169.4
2169.4
2122.8
2122.8
2122.8
2122.8
2122.8
2122.8
2119.5
2119.5
2119.5
2078.6
2056.7
2056.7
2044.8
2042.8
2042.8
2026.4
2026.4
2013.5
2010.7
1988.2
1988.2
1988.2
1988.2
1979.7
1979.7
1979.7
1972.8
1972.8
1972.8
1972.7
1972.4
1923.7
1923.7
1923.7
1923.7
1908.4
1908.4
1908.4
1908.4
1908.4
1908.4
1908.4
1908.4
1908.4
1908.4
1887.8
1887.8
1887.8
1887.8
1872.4
1865.8
1865.8
1850.5
1850.5
1850.5
1850.5
1850.5
1850.5
1850.5
1850.5
1817.5
1745.2
1745.2
1745.2
1745.2
1733.7
1733.7
1733.7
1733.7
1733.7
1730.0
1730.0
1730.0
1730.0
1730.0
1687.1
1687.1
1687.1
1687.1
1687.1
1687.1
1677.8
1677.8
1658.9
1658.9
1658.9
1658.9
1658.9
1649.0
1649.0
1649.0
1649.0
1649.0
1649.0
1621.2
1621.2
1621.2
1621.2
1621.2
1621.2
1621.2
1621.2
1621.2
1610.8
1610.8
1610.8
1610.8
1595.0
1595.0
1595.0
1595.0
1595.0
1595.0
1595.0
1595.0
1595.0
1595.0
1584.9
1584.9
1584.9
1543.3
1543.3
1522.2
1517.7
1517.7
1517.7
1517.7
1517.7
1517.7
1517.7
1517.7
1517.7
1517.7
1517.7
1517.7
1517.7
1517.7
1513.5
1513.5
1513.5
1513.5
1513.5
1513.5
1513.5
1513.5
1513.3
1513.3
1485.8
1485.8
1473.7
1473.7
1473.7
1471.6
1471.6
1471.6
1457.6
1457.6
1455.1
1455.1
1455.1
1455.1
1455.1
1455.1
1455.1
1455.1
1430.4
1430.4
1430.4
1430.4
1430.4
1430.4
1430.4
1430.4
1414.9
1414.9
1414.9
1410.2
1410.2
1392.1
1392.1
1392.1
1392.1
1392.1
1392.1
1392.1
1392.1
1369.4
1369.4
1369.4
1369.4
1369.4
1369.4
1369.4
1369.4
1369.4
1369.4
1369.4
1369.4
1360.5
1360.5
1360.5
1360.5
1360.5
1360.5
1360.5
1360.5
1360.5
1360.5
1360.5
1360.5
1360.5
1360.5
1360.5
1333.7
1333.7
1333.7
1333.7
1333.7
1333.7
1333.7
1333.7
1333.7
1333.7
1333.7
1333.7
1333.7
1314.2
1314.2
1262.3
1262.3
1245.5
1245.5
1245.5
1245.5
1245.5
1245.5
1245.5
1237.0
1237.0
1237.0
1227.0
1223.5
1223.5
1223.5
1223.5
1223.5
1223.5
1223.5
1223.5
1183.9
1183.9
1183.9
1183.9
1183.9
1183.9
1183.9
1183.9
1183.9
1183.9
1183.9
1183.9
1183.9
1183.9
1181.9
1181.9
1181.9
1181.9
1181.9
1181.9
1181.9
1181.9
1181.9
1181.9
1181.9
1174.6
1174.6
1174.6
1174.6
1174.6
1174.6
1174.6
1174.6
1174.6
1174.6
1174.6
1174.6
1174.6
1174.6
1174.6
1174.6
1174.6
1174.6
1174.6
1174.6
1174.6
1164.3
1164.3
1164.3
1130.7
1130.7
1119.6
1119.6
1119.6
1119.6
1119.6
1119.6
1119.6
1119.6
1119.6
1119.6
1119.6
1119.6
1119.6
1119.6
1119.6
1119.6
1119.6
1119.6
1119.6
1119.6
1119.6
1119.6
1119.6
1119.6
1119.6
1119.6
1119.6
1119.6
1119.1
1119.1
1119.1
1119.1
1119.1
1119.1
1119.1
1119.1
1119.1
1119.1
1119.1
1119.1
1119.1
1096.3
1096.3
1096.3
1096.3
1096.3
1096.3
1096.3
1096.3
1096.3
1096.3
1096.3
1096.3
1096.3
1096.3
1096.3
1096.3
1096.3
1096.3
1090.6
1090.6
1090.6
1090.6
1090.6
1090.6
1090.6
1090.6
1090.6
1090.6
1090.6
1090.6
1090.6
1090.6
1090.6
1090.6
1090.6
1090.6
1090.6
1090.6
1090.6
1090.6
1090.6
1090.6
1090.6
1090.6
1090.6
1090.6
1090.6
1090.6
1090.6
1090.6
1090.6
1089.1
1089.1
1089.1
1089.1
1089.1
1089.1
1089.1
1089.1
1089.1
1089.1
1089.1
1089.1
1089.1
1089.1
1089.1
1089.1
1089.1
1089.1
1089.1
1089.1
1089.1
1089.1
1089.1
1089.1
1089.1
1089.1
1089.1
1089.1
1089.1
1089.1
1089.1
1089.1
1089.1
1089.1
1089.1
1089.1
1089.1
1089.1
1089.1
1089.1
1088.4
1088.4
1088.4
1088.4
1088.4
1084.2
1082.5
1082.5
1082.5
1082.5
1082.5
1077.5
1077.5
1077.5
1077.5
1077.5
1077.5
1077.5
1077.5
1077.5
1077.5
1077.5
1077.5
1077.5
1077.5
1077.5
1055.5
1055.5
1055.5
1055.5
1055.5
1055.5
1055.5
1055.5
1055.5
1055.5
1055.5
1051.0
1051.0
1051.0
1051.0
1050.8
1050.8
1049.4
1049.4
1049.4
1049.4
1049.4
1049.4
1049.4
1049.4
1035.8
1035.8
1035.8
1035.8
1035.8
1035.8
1035.8
1035.8
1030.8
1030.8
1030.8
1030.8
1030.8
1030.8
1030.8
1030.8
1030.8
1030.8
1030.8
1030.8
1030.8
1030.8
1030.8
1030.8
1030.4
1030.4
1030.4
1030.4
1030.4
1030.4
1030.4
1030.4
1030.4
1030.4
1030.4
1029.6
1029.6
1029.6
1029.6
1029.6
1029.6
1029.6
1029.6
1029.6
1029.6
1029.6
1029.6
1029.6
1029.6
1029.6
1029.6
1029.6
1029.6
1017.5
1017.5
1017.5
1017.5
1017.5
1017.5
1017.5
1017.5
1017.5
1017.5
1017.5
1017.5
1017.5
1017.5
1017.5
1017.5
1017.5
1017.5
1017.5
1017.5
1017.5
1017.5
1017.5
1017.5
1017.5
1017.5
1017.5
1017.5
1017.5
1017.5
999.7
997.0
997.0
997.0
997.0
997.0
997.0
997.0
997.0
997.0
997.0
997.0
997.0
997.0
994.5
994.5
994.5
994.5
994.5
994.5
994.5
994.5
994.5
994.5
994.5
991.9
991.9
991.9
991.9
991.9
991.9
991.9
966.5
966.5
966.5
966.5
966.5
966.5
966.5
966.5
966.5
966.5
966.5
966.5
966.5
966.5
966.5
966.5
966.5
966.5
966.5
966.5
966.5
966.5
966.5
966.5
966.5
966.5
966.5
966.5
966.5
966.5
966.5
966.5
966.5
966.5
966.5
966.5
966.5
966.5
966.5
966.5
966.5
966.5
966.5
966.5
966.5
966.5
966.5
966.5
966.5
966.5
966.5
966.5
966.5
966.5
966.5
966.5
966.5
966.5
966.5
966.5
966.5
966.5
966.5
966.5
966.5
966.5
966.5
966.5
966.5
966.5
966.5
966.5
966.5
966.5
966.5
966.5
966.5
927.7
927.7
927.7
927.7
927.7
927.7
927.7
927.7
927.7
927.7
927.7
927.7
927.7
927.7
927.7
927.7
927.7
927.7
927.7
927.7
927.7
916.9
916.9
916.9
916.9
916.9
916.9
916.9
916.9
916.9
916.9
916.9
916.9
916.9
916.9
916.9
916.9
916.9
916.9
916.9
916.9
916.9
916.9
916.9
916.7
916.7
916.7
916.7
916.7
916.7
916.7
916.7
916.7
916.7
916.7
916.7
916.7
916.7
916.7
916.7
916.7
916.7
907.5
907.5
907.5
907.5
907.5
907.5
907.5
907.5
907.5
907.5
907.5
907.5
907.5
907.5
907.5
902.3
902.3
902.3
902.3
902.3
902.3
902.3
902.3
902.3
902.3
902.3
902.3
902.3
902.3
902.3
902.3
902.3
902.3
902.3
902.3
902.3
902.3
902.3
902.3
902.3
902.3
902.3
902.3
902.3
902.3
902.3
902.3
902.3
902.3
902.3
902.3
902.3
902.3
902.3
902.3
902.3
902.3
902.3
902.3
902.3
902.3
902.3
902.3
902.3
902.3
902.3
902.3
902.3
902.3
902.3
902.3
902.3
902.3
902.3
902.3
902.3
902.3
902.3
902.3
897.8
897.8
897.8
897.8
897.8
897.8
897.8
897.8
897.8
895.3
895.3
895.3
895.3
895.3
895.3
895.3
895.3
895.3
895.3
895.3
895.3
895.3
895.3
895.3
895.3
895.3
895.3
895.3
895.3
895.3
895.3
895.3
895.3
882.0
882.0
882.0
882.0
882.0
882.0
882.0
882.0
882.0
882.0
882.0
882.0
882.0
882.0
882.0
882.0
882.0
882.0
882.0
882.0
882.0
882.0
882.0
882.0
882.0
882.0
872.7
872.7
872.7
872.7
872.7
872.7
872.7
872.7
872.7
872.7
872.7
872.7
872.7
872.7
872.7
872.7
872.7
872.7
872.7
872.7
872.7
872.7
872.7
872.7
872.7
872.7
872.7
872.7
872.7
872.7
872.7
872.7
872.7
872.7
872.7
872.7
872.7
872.7
872.7
872.7
872.7
872.7
872.7
872.7
872.7
872.7
872.7
872.7
872.7
872.7
872.7
872.7
872.7
872.7
872.7
872.7
872.7
872.7
872.7
872.7
872.7
872.7
872.7
872.7
872.7
872.7
872.7
872.7
872.7
872.7
872.7
872.7
872.7
872.7
872.7
872.7
872.7
872.7
872.7
872.7
872.7
872.7
872.7
872.7
872.7
872.7
872.7
872.7
872.7
872.7
872.7
872.7
872.7
872.7
872.7
872.7
872.7
872.7
872.7
872.7
872.7
872.7
872.7
872.7
872.7
872.7
872.7
872.7
872.7
872.7
872.7
872.7
872.7
872.7
872.7
872.7
872.7
872.7
872.7
872.7
872.7
872.7
872.7
872.7
872.7
872.7
872.7
872.7
872.7
872.7
872.7
872.7
872.7
872.7
872.7
872.7
872.7
872.7
872.7
872.7
872.7
872.7
872.7
872.7
872.7
872.7
872.7
872.7
872.7
872.7
872.7
872.7
872.7
872.7
872.7
872.7
872.7
872.7
872.7
872.7
872.7
872.7
872.7
872.7
872.7
872.7
872.7
872.7
872.7
872.7
872.7
872.7
872.7
872.7
872.7
872.7
872.7
872.7
872.7
872.7
872.7
872.7
872.7
872.7
872.7
872.7
872.7
863.4
863.4
863.4
863.4
863.4
863.4
863.4
863.4
863.4
863.4
863.4
863.4
863.4
863.4
863.4
863.4
863.4
863.4
863.4
863.4
863.4
863.4
863.4
863.4
863.4
863.4
863.4
863.4
862.4
862.4
862.4
862.4
862.4
862.4
862.4
862.4
862.4
862.4
862.4
862.4
862.4
862.4
862.4
862.4
862.4
862.4
862.4
862.4
862.4
862.4
862.4
862.4
862.4
862.4
862.4
862.4
862.4
862.4
862.4
862.4
862.4
862.4
862.4
862.4
862.4
862.4
862.4
862.4
862.4
862.4
862.4
862.4
862.4
833.9
833.9
833.9
827.6
827.6
827.6
827.6
827.6
827.6
827.6
827.6
827.6
827.6
827.6
827.6
827.6
816.0
816.0
816.0
816.0
816.0
816.0
816.0
816.0
816.0
816.0
816.0
816.0
816.0
816.0
816.0
816.0
816.0
816.0
816.0
809.7
809.7
809.7
809.7
809.7
809.7
809.7
809.7
809.7
809.7
809.7
809.7
809.7
809.7
809.7
809.7
809.7
809.7
809.7
809.7
809.7
809.7
809.7
809.7
809.7
809.7
809.7
809.7
809.7
809.7
809.7
809.7
809.7
809.7
809.7
809.7
809.7
809.7
809.7
809.7
809.7
809.7
809.7
809.7
809.7
809.7
809.7
809.7
809.7
809.7
809.7
809.7
809.7
809.7
809.7
809.7
791.7
791.7
791.7
791.7
791.7
791.7
791.7
791.7
791.7
791.7
791.7
791.7
791.7
791.7
791.7
791.7
791.7
791.7
791.7
791.7
791.7
791.7
791.7
791.7
791.7
791.7
791.7
791.7
791.7
789.9
789.9
789.9
789.9
789.9
789.9
789.9
789.9
789.9
789.9
789.9
789.9
789.9
789.9
789.9
789.9
789.9
789.9
789.9
789.9
789.9
789.9
789.9
789.9
789.9
789.9
789.9
789.9
789.9
789.9
789.9
789.9
789.9
789.9
789.9
789.9
789.9
789.9
789.9
789.9
789.9
789.9
789.9
789.9
789.9
789.9
789.9
789.9
789.9
789.9
789.9
789.4
789.4
789.4
789.4
789.4
789.4
789.4
789.4
789.4
789.4
789.4
789.4
789.4
789.4
789.4
789.4
789.4
789.4
789.4
789.4
789.4
789.4
789.4
789.4
789.4
789.4
789.4
789.4
789.4
789.4
789.4
789.4
789.4
789.4
789.4
789.4
789.4
789.4
789.4
789.4
789.4
789.4
789.4
789.4
789.4
789.4
789.4
789.4
789.4
789.4
789.4
789.4
789.4
789.4
789.4
789.4
789.4
789.4
789.4
789.4
789.4
789.4
789.4
789.4
789.4
789.4
789.4
789.4
789.4
789.4
789.4
789.4
789.4
789.4
789.4
789.4
789.4
789.4
789.4
789.4
789.4
789.4
789.4
789.4
789.4
789.4
789.4
789.4
789.4
789.4
789.4
789.4
789.4
789.4
789.4
789.4
789.4
789.4
789.4
787.3
787.3
787.3
787.3
787.3
787.3
787.3
787.3
787.3
787.3
787.3
787.3
787.3
787.3
787.3
787.3
787.3
787.3
787.3
787.3
787.3
787.3
787.3
787.3
787.3
787.3
787.3
787.3
787.3
787.3
787.3
787.3
787.3
787.3
787.3
787.3
779.8
779.8
779.8
779.8
779.8
779.8
779.8
779.8
779.8
779.8
779.8
779.8
779.8
779.8
779.8
779.8
779.8
779.8
779.8
779.8
779.8
779.8
779.8
779.8
779.8
779.8
779.8
779.8
779.8
779.8
779.8
779.8
779.8
779.8
779.8
779.8
779.8
779.8
779.8
779.8
779.8
779.8
779.8
779.8
779.8
779.8
779.8
779.8
779.8
779.8
779.8
779.8
779.8
779.8
779.8
779.8
779.8
779.8
779.8
779.8
779.8
779.8
779.8
779.8
779.8
779.8
779.8
779.8
779.8
779.8
779.8
779.8
779.8
779.8
779.8
779.8
779.8
779.8
779.8
779.8
779.8
779.8
779.8
779.8
779.8
779.8
779.8
779.8
779.8
779.8
779.8
779.8
779.8
779.8
779.8
779.8
779.8
779.8
779.8
779.8
779.8
779.8
779.8
779.8
779.8
779.8
779.8
779.8
779.8
779.8
779.8
779.8
779.8
779.8
779.8
779.8
779.8
779.8
779.8
747.6
747.6
747.6
747.6
747.6
747.6
747.6
747.6
747.6
747.6
747.6
747.6
747.6
747.6
747.6
747.6
747.6
747.6
747.6
747.6
747.6
747.6
747.6
747.6
747.6
747.6
747.6
747.6
747.6
747.6
747.6
747.6
747.6
747.6
747.6
747.6
747.6
747.6
747.6
747.6
747.6
747.6
747.6
747.6
747.6
747.6
747.6
747.6
747.6
747.6
747.6
747.6
747.6
747.6
747.6
747.6
747.6
747.6
747.6
747.6
747.6
747.6
747.6
747.6
747.6
747.6
747.6
747.6
747.6
747.6
747.6
747.6
747.6
747.6
747.6
747.6
747.6
747.6
747.6
747.6
747.6
747.6
747.6
747.6
747.6
747.6
747.6
747.6
747.6
747.6
747.6
747.6
747.6
747.6
747.6
747.6
747.6
747.6
747.6
747.6
747.6
747.6
747.6
747.6
747.6
747.6
747.6
747.6
747.6
747.6
747.6
747.6
747.6
747.6
747.6
747.6
747.6
747.6
747.6
747.6
747.6
747.6
747.6
747.6
747.6
747.6
747.6
747.6
747.6
747.6
747.6
747.6
747.6
747.6
747.6
747.6
747.6
747.6
747.6
747.6
747.6
747.6
747.6
747.6
747.6
747.6
747.6
747.6
747.6
747.6
747.6
747.6
747.6
747.6
747.6
747.6
747.6
747.6
747.6
747.6
747.6
747.6
747.6
747.6
747.6
747.6
747.6
747.6
747.6
747.6
747.6
746.4
746.4
746.4
746.4
746.4
746.4
746.4
746.4
746.4
746.4
746.4
746.4
746.4
746.4
746.4
746.4
746.4
746.4
746.4
746.4
746.4
746.4
746.4
746.4
746.4
746.4
746.4
746.4
746.4
746.4
746.4
746.4
746.4
746.4
746.4
746.4
746.4
746.4
746.4
746.4
746.4
746.4
746.4
746.4
746.4
746.4
746.4
746.4
746.4
746.4
746.4
746.4
746.4
746.4
746.4
746.4
746.4
746.4
746.4
746.4
746.4
746.4
746.4
746.4
746.4
746.4
746.4
746.4
746.4
746.4
746.4
746.4
746.4
746.4
746.4
746.4
746.4
746.4
746.4
746.4
746.4
746.4
746.4
746.4
746.4
746.4
746.4
746.4
746.4
746.4
746.4
746.4
746.4
746.4
746.4
746.4
746.4
746.4
746.4
746.4
746.4
746.4
746.4
746.4
746.4
746.4
746.4
746.4
746.4
746.4
746.4
746.4
746.4
746.4
746.4
746.4
746.4
746.4
746.4
746.4
746.4
746.4
746.4
746.4
746.4
746.4
745.7
745.7
745.7
745.7
745.7
745.7
745.7
745.7
745.7
745.7
745.7
745.7
745.7
745.7
745.7
745.7
745.7
745.7
745.7
745.7
745.7
745.7
745.7
745.7
745.7
745.7
745.7
745.7
745.7
745.7
745.7
745.7
745.7
745.7
745.7
745.7
745.7
745.7
745.7
745.7
745.7
745.7
745.7
745.7
745.7
745.7
745.7
745.7
745.7
745.7
745.7
745.7
745.7
745.7
745.7
745.7
745.7
745.7
745.7
745.7
745.7
745.7
745.7
745.7
745.7
745.7
745.7
745.7
745.7
745.7
745.7
745.7
745.7
745.7
745.7
745.7
745.7
745.7
745.7
745.7
745.7
745.7
745.7
745.7
745.7
745.7
745.7
745.7
745.7
745.7
745.7
745.7
745.7
745.7
745.7
745.7
745.7
745.7
745.7
745.7
745.7
745.7
745.7
745.7
745.7
745.7
745.7
745.7
745.7
745.7
745.7
745.7
745.7
745.7
745.7
745.7
745.7
745.7
745.7
745.7
745.7
745.7
745.7
745.7
745.7
745.7
745.7
745.7
745.7
745.7
745.7
745.7
745.7
745.7
745.7
745.7
745.7
745.7
745.7
745.7
745.7
745.7
745.7
745.7
745.7
745.7
745.7
745.7
745.7
745.7
745.7
745.7
745.7
745.7
745.7
745.7
745.7
745.7
745.7
745.7
745.7
745.7
745.7
745.7
745.7
745.7
745.7
745.7
745.7
745.7
740.7
740.7
740.7
740.7
740.7
740.7
740.7
740.7
740.7
740.7
740.7
740.7
740.7
740.7
740.7
740.7
740.7
740.7
740.7
740.7
740.7
740.7
740.7
740.7
740.7
740.7
740.7
740.7
740.7
740.7
740.7
740.7
740.7
740.7
740.7
740.7
740.7
740.7
740.7
740.7
740.7
740.7
740.7
740.7
740.7
740.7
740.7
740.7
740.7
740.7
740.7
740.7
740.7
740.7
740.7
740.7
740.7
740.7
740.7
740.7
740.7
740.7
740.7
740.7
740.7
740.7
740.7
740.7
740.7
740.7
740.7
740.7
740.7
740.7
740.7
740.7
740.7
740.7
740.7
740.7
740.7
740.7
740.7
740.7
740.7
740.7
740.7
740.7
740.7
740.7
740.7
740.7
740.7
740.7
740.7
740.7
740.7
740.7
740.7
740.7
740.7
740.7
740.7
740.7
740.7
740.7
740.7
740.7
740.7
740.7
740.7
740.7
740.7
740.7
740.7
740.7
740.7
740.7
740.7
740.7
740.7
740.7
740.7
740.7
740.7
740.7
740.7
740.7
740.7
740.7
740.7
740.7
740.7
740.7
740.7
740.7
740.7
740.7
740.7
740.7
740.7
740.7
740.7
740.7
740.7
740.7
740.7
740.7
740.7
740.7
740.7
740.7
740.7
740.7
740.7
740.7
740.7
740.7
740.7
740.7
740.7
740.7
740.7
740.7
740.7
740.7
740.7
740.7
740.7
740.7
740.7
740.7
740.7
740.5
740.5
740.5
740.5
740.5
740.5
740.5
740.5
740.5
740.5
740.5
740.5
740.5
740.5
740.5
740.5
740.5
740.5
740.5
740.5
740.5
740.5
740.5
740.5
740.5
740.5
740.5
740.5
740.5
740.5
740.5
740.5
740.5
740.5
740.5
740.5
740.5
740.5
740.5
740.5
740.5
740.5
740.5
740.5
740.5
740.5
740.5
733.4
733.4
733.4
733.4
733.4
733.4
733.4
733.4
733.4
733.4
733.4
733.4
733.4
733.4
733.4
733.4
733.4
733.4
733.4
733.4
733.4
733.4
733.4
733.4
733.4
733.4
733.4
733.4
733.4
733.4
733.4
733.4
733.4
733.4
733.4
733.4
733.4
733.4
733.4
733.4
733.4
733.4
733.4
733.4
733.4
733.4
733.4
733.4
733.4
733.4
733.4
733.4
733.4
733.4
733.4
733.4
733.4
733.4
733.4
733.4
733.4
733.4
733.4
733.4
733.4
733.4
733.4
733.4
733.4
733.4
733.4
733.4
733.4
733.4
733.4
733.4
733.4
733.4
733.4
733.4
733.4
733.4
733.4
733.4
733.4
733.4
733.4
733.4
733.4
733.4
733.4
733.4
733.4
733.4
733.4
733.4
733.4
733.4
733.4
733.4
733.4
733.4
733.4
733.4
733.4
733.4
733.4
733.4
733.4
733.4
733.4
733.4
733.4
733.4
733.4
733.4
733.4
733.4
733.4
733.4
733.4
733.4
733.4
733.4
733.4
733.4
733.4
733.4
733.4
733.4
733.4
733.4
733.4
733.4
733.4
733.4
733.4
733.4
733.4
733.4
733.4
733.4
733.4
733.4
733.4
733.4
733.4
733.4
733.4
733.4
733.4
733.4
733.4
733.4
733.4
733.4
733.4
721.1
721.1
721.1
721.1
721.1
721.1
721.1
721.1
721.1
721.1
721.1
721.1
721.1
721.1
721.1
721.1
721.1
721.1
721.1
721.1
721.1
721.1
721.1
721.1
721.1
721.1
721.1
721.1
721.1
721.1
721.1
721.1
721.1
721.1
721.1
721.1
721.1
721.1
721.1
721.1
721.1
721.1
721.1
721.1
721.1
721.1
721.1
721.1
721.1
721.1
721.1
721.1
721.1
721.1
721.1
721.1
721.1
721.1
721.1
721.1
721.1
721.1
721.1
721.1
721.1
721.1
721.1
721.1
721.1
719.9
719.9
719.9
719.9
719.9
719.9
719.9
719.9
719.9
719.9
719.9
719.9
719.9
719.9
719.9
719.9
719.9
719.9
719.9
719.9
719.9
719.9
719.9
719.9
719.9
719.9
719.9
719.9
719.9
719.9
719.9
719.9
719.9
719.9
719.9
719.9
719.9
719.9
719.9
719.9
719.9
719.9
719.9
719.9
719.9
719.9
719.9
719.9
719.9
719.9
719.9
719.9
719.9
719.9
719.9
719.9
719.9
719.9
719.9
719.9
719.9
719.9
719.9
719.9
719.9
719.9
719.9
719.9
719.9
719.9
719.9
719.9
719.9
719.9
719.9
719.9
719.9
719.9
719.9
719.9
719.9
719.9
719.9
719.9
719.9
719.9
719.9
719.9
719.9
719.9
719.9
719.9
719.9
719.9
719.9
719.9
719.9
719.9
719.9
714.6
714.6
714.6
714.6
714.6
714.6
714.6
714.6
714.6
714.6
714.6
714.6
714.6
714.6
714.6
714.6
714.6
714.6
714.6
714.6
714.6
714.6
714.6
714.6
714.6
714.6
714.6
714.6
714.6
705.0
705.0
705.0
705.0
705.0
705.0
705.0
705.0
705.0
705.0
705.0
705.0
705.0
705.0
705.0
705.0
705.0
705.0
705.0
705.0
705.0
705.0
705.0
705.0
705.0
705.0
705.0
705.0
705.0
705.0
705.0
705.0
705.0
705.0
705.0
705.0
705.0
705.0
705.0
705.0
705.0
705.0
705.0
705.0
705.0
705.0
705.0
705.0
705.0
705.0
705.0
705.0
705.0
705.0
705.0
705.0
705.0
705.0
705.0
705.0
705.0
705.0
705.0
705.0
705.0
705.0
705.0
705.0
705.0
705.0
705.0
705.0
705.0
705.0
705.0
705.0
705.0
705.0
705.0
705.0
705.0
705.0
705.0
705.0
705.0
705.0
705.0
705.0
705.0
705.0
705.0
705.0
705.0
705.0
705.0
705.0
705.0
705.0
705.0
705.0
705.0
705.0
705.0
705.0
705.0
705.0
705.0
705.0
705.0
705.0
705.0
705.0
705.0
705.0
705.0
705.0
705.0
705.0
705.0
705.0
705.0
705.0
705.0
705.0
705.0
705.0
705.0
705.0
705.0
705.0
705.0
705.0
705.0
705.0
705.0
705.0
705.0
705.0
705.0
705.0
705.0
705.0
705.0
705.0
705.0
705.0
705.0
705.0
705.0
705.0
705.0
705.0
705.0
705.0
705.0
705.0
705.0
705.0
705.0
705.0
705.0
705.0
705.0
705.0
705.0
705.0
705.0
705.0
705.0
705.0
705.0
705.0
705.0
705.0
705.0
705.0
705.0
705.0
705.0
705.0
705.0
705.0
705.0
705.0
705.0
705.0
704.9
704.9
704.9
704.9
704.9
704.9
704.9
704.9
704.9
704.9
704.9
704.9
704.9
704.9
704.9
704.9
704.9
704.9
704.9
704.9
704.9
704.9
704.9
704.9
704.9
704.9
704.9
704.9
704.9
704.9
704.9
704.9
704.9
704.9
704.9
704.9
704.9
704.9
704.9
704.9
704.9
704.9
704.9
704.9
704.9
704.9
704.9
704.9
704.9
704.9
704.9
704.9
704.9
704.9
704.9
704.9
704.9
704.9
704.9
704.9
704.9
704.9
704.9
704.9
704.9
704.9
704.9
704.9
704.9
704.9
704.9
704.9
704.9
704.9
704.9
704.9
704.9
704.9
704.9
704.9
704.9
704.9
704.9
704.9
704.9
704.9
704.9
704.9
704.9
704.9
704.9
704.9
704.9
704.9
704.9
704.9
704.9
704.9
704.9
704.9
704.9
704.9
704.9
704.9
704.9
704.9
704.9
704.9
704.9
704.9
704.9
704.9
704.9
704.9
704.9
704.9
704.9
704.9
704.9
704.9
704.9
704.9
704.9
704.9
704.9
704.9
704.9
704.9
704.9
704.9
704.9
704.9
704.9
704.9
704.9
704.9
704.9
704.9
704.9
704.9
704.9
704.9
704.9
704.9
704.9
704.9
704.9
704.9
704.9
704.9
704.9
704.9
704.9
704.9
704.9
704.9
704.9
704.9
704.9
704.9
704.9
704.9
704.9
704.9
704.9
704.9
704.9
704.9
704.9
704.9
704.9
704.9
704.9
704.9
704.9
704.9
704.9
704.9
704.9
704.9
704.9
704.9
704.9
704.9
704.9
704.9
704.9
704.9
704.9
704.9
704.9
704.9
704.9
704.9
704.9
704.9
704.9
704.9
704.9
704.9
704.9
704.9
704.9
704.9
704.9
704.9
704.9
704.9
704.9
704.9
704.9
704.9
704.9
704.9
704.9
704.9
704.9
704.9
704.9
704.9
704.9
704.9
704.9
704.9
704.9
704.9
704.9
704.9
704.9
704.9
704.9
702.6
702.6
702.6
702.6
702.6
702.6
702.6
702.6
702.6
702.6
702.6
702.6
702.6
702.6
702.6
702.6
702.6
702.6
702.6
702.6
702.6
702.6
702.6
702.6
702.6
702.6
702.6
702.6
702.6
702.6
702.6
702.6
702.6
702.6
702.6
702.6
702.6
702.6
702.6
702.6
702.6
702.6
702.6
702.6
702.6
702.6
702.6
702.6
702.6
702.6
702.6
702.6
702.6
702.6
702.6
702.6
702.6
702.6
702.6
702.6
702.6
702.6
702.6
702.6
702.6
702.6
702.6
702.6
702.6
702.6
702.6
702.6
702.6
702.6
702.6
702.6
702.6
702.6
702.6
702.6
702.6
702.6
702.6
702.6
702.6
702.6
702.6
702.6
702.6
702.6
702.6
702.6
702.6
702.6
702.6
702.6
702.6
702.6
702.6
702.6
692.7
692.7
692.7
692.7
692.7
692.7
692.7
692.7
692.7
692.7
692.7
692.7
692.7
692.7
692.7
692.7
692.7
692.7
692.7
692.7
692.7
692.7
692.7
692.7
692.7
692.7
692.7
692.7
692.7
692.7
692.7
692.7
692.7
692.7
692.7
692.7
692.7
692.7
692.7
692.7
692.7
692.7
692.7
692.7
692.7
692.7
692.7
692.7
692.7
692.7
692.7
692.7
692.7
692.7
692.7
692.7
692.7
692.7
692.7
692.7
692.7
692.7
692.7
692.7
692.7
692.7
692.7
692.7
692.7
692.7
692.7
692.7
692.7
692.7
692.7
692.7
692.7
692.7
692.7
692.7
692.7
692.7
692.7
692.7
692.7
692.7
692.7
692.7
692.7
692.7
692.7
692.7
692.7
692.7
692.7
692.7
692.7
692.7
692.7
692.7
692.7
692.7
692.7
692.7
692.7
692.7
692.7
692.7
692.7
692.7
692.7
692.7
692.7
692.7
692.7
692.7
692.7
692.7
692.7
692.7
692.7
692.7
692.7
692.7
692.7
692.7
692.7
692.7
692.7
692.7
692.7
692.7
692.7
692.7
692.7
692.7
692.7
692.7
692.7
692.7
692.7
692.7
692.7
692.7
692.7
692.7
692.7
692.7
692.7
692.7
692.7
692.7
692.7
692.7
692.7
692.7
692.7
692.7
692.7
692.7
692.7
692.7
692.7
692.7
692.7
692.7
692.7
692.7
692.7
692.7
690.3
690.3
690.3
690.3
690.3
690.3
690.3
690.3
690.3
690.3
690.3
690.3
690.3
690.3
690.3
690.3
690.3
690.3
690.3
690.3
690.3
690.3
690.3
690.3
690.3
690.3
690.3
690.3
690.3
690.3
690.3
690.3
690.3
690.3
690.3
690.3
690.3
690.3
690.3
690.3
690.3
690.3
690.3
690.3
690.3
690.3
690.3
690.3
690.3
690.3
690.3
690.3
690.3
683.3
683.3
683.3
683.3
683.3
683.3
683.3
683.3
683.3
683.3
683.3
683.3
683.3
683.3
683.3
683.3
683.3
683.3
683.3
683.3
683.3
683.3
683.3
683.3
683.3
683.3
683.3
683.3
683.3
683.3
683.3
683.3
683.3
683.3
683.3
683.3
683.3
683.3
683.3
683.3
683.3
683.3
683.3
683.3
683.3
683.3
683.3
683.3
683.3
683.3
683.3
683.3
683.3
683.3
683.3
683.3
683.3
683.3
683.3
683.3
683.3
683.3
683.3
683.3
683.3
683.3
683.3
683.3
683.3
683.3
683.3
683.3
683.3
683.3
683.3
683.3
683.3
683.3
683.3
683.3
683.3
683.3
683.3
683.3
683.3
683.3
683.3
683.3
683.3
683.3
683.3
683.3
683.3
683.3
683.3
683.3
683.3
683.3
683.3
683.3
683.3
683.3
683.3
683.3
683.3
683.3
683.3
683.3
683.3
683.3
683.3
683.3
668.1
668.1
668.1
668.1
668.1
668.1
668.1
668.1
668.1
668.1
668.1
668.1
668.1
668.1
668.1
668.1
668.1
668.1
668.1
668.1
668.1
668.1
668.1
668.1
668.1
668.1
668.1
668.1
668.1
668.1
668.1
668.1
668.1
668.1
668.1
668.1
668.1
668.1
668.1
668.1
668.1
668.1
668.1
668.1
668.1
668.1
668.1
668.1
668.1
668.1
668.1
668.1
668.1
668.1
668.1
668.1
668.1
668.1
668.1
668.1
668.1
668.1
668.1
668.1
668.1
668.1
668.1
668.1
668.1
668.1
668.1
668.1
668.1
668.1
668.1
668.1
668.1
668.1
668.1
668.1
668.1
668.1
668.1
668.1
668.1
668.1
658.7
658.7
658.7
658.7
658.7
658.7
658.7
658.7
658.7
658.7
658.7
658.7
658.7
658.7
658.7
658.7
658.7
658.7
658.7
658.7
658.7
658.7
658.7
658.7
658.7
658.7
658.7
658.7
658.7
658.7
658.7
658.7
658.7
658.7
658.7
658.7
658.7
658.7
658.7
658.7
658.7
658.7
658.7
658.7
658.7
658.7
658.7
658.7
658.7
658.7
658.7
658.7
658.7
658.7
658.7
658.7
658.7
658.7
658.7
658.7
658.7
658.7
658.7
658.7
658.7
658.7
658.7
658.7
658.7
658.7
658.7
658.7
658.7
658.7
658.7
658.7
658.7
658.7
658.7
658.7
658.7
658.7
658.7
658.7
658.7
658.7
658.7
658.7
658.7
658.7
658.7
658.7
658.7
658.7
658.7
658.7
658.7
658.7
658.7
658.7
658.7
658.7
658.7
658.7
658.7
658.7
658.7
658.7
658.7
658.7
658.7
658.7
658.7
658.7
658.7
658.7
658.7
658.7
658.7
658.7
658.7
658.7
658.7
658.7
658.7
658.7
658.7
658.7
658.7
658.7
658.7
658.7
658.7
658.7
658.7
658.7
658.7
658.7
658.7
658.7
658.7
658.7
658.7
658.7
658.7
658.7
658.7
658.7
658.7
658.7
658.7
658.7
658.7
658.7
658.7
658.7
658.7
658.7
658.7
658.7
658.7
658.7
658.7
658.7
658.7
658.7
658.7
658.7
658.7
658.7
658.7
658.7
658.7
658.7
658.7
658.7
658.7
658.7
658.7
658.7
658.7
658.7
658.7
658.7
658.7
658.7
658.7
658.7
658.7
658.7
658.7
658.7
658.7
658.7
658.7
658.7
658.7
658.7
658.7
658.7
658.7
658.7
658.7
658.7
658.7
658.7
658.7
658.7
658.7
658.7
658.7
658.7
658.7
658.7
658.7
658.7
658.7
658.7
658.7
658.7
658.7
658.7
658.7
658.7
658.7
658.7
658.7
658.7
658.7
658.7
658.7
658.7
658.7
658.7
658.7
658.7
658.7
658.7
658.7
658.7
658.7
658.7
658.7
658.7
658.7
658.7
658.7
658.7
658.7
658.7
658.7
658.7
658.7
658.7
658.7
658.7
658.7
658.7
658.7
658.7
658.7
658.7
658.7
658.7
658.7
658.7
658.7
658.7
658.7
658.7
658.7
658.7
658.7
658.7
658.7
658.7
658.7
658.7
658.7
658.7
658.7
658.7
658.7
658.7
658.7
658.7
658.7
658.7
658.7
658.7
658.7
658.7
658.7
658.7
658.7
658.7
658.7
658.7
658.7
658.7
658.7
658.7
658.7
658.7
658.7
658.7
658.7
658.7
658.7
658.7
658.7
658.7
658.7
658.7
658.7
658.7
658.7
658.7
658.7
658.7
658.7
658.7
658.7
658.7
658.7
658.7
658.7
658.7
658.7
658.7
658.7
658.7
658.7
658.7
658.7
658.7
658.7
658.7
658.7
658.7
658.7
658.7
658.7
658.7
650.1
650.1
650.1
650.1
650.1
650.1
650.1
650.1
650.1
650.1
650.1
650.1
650.1
650.1
650.1
650.1
650.1
650.1
650.1
650.1
650.1
650.1
650.1
650.1
650.1
650.1
650.1
650.1
643.9
643.9
643.9
643.9
643.9
643.9
643.9
643.9
643.9
643.9
643.9
643.9
643.9
643.9
643.9
643.9
643.9
643.9
643.9
643.9
643.9
643.9
643.9
643.9
643.9
643.9
643.9
643.9
643.9
643.9
643.9
643.9
643.9
643.9
643.9
643.9
643.9
643.9
643.9
643.9
643.9
643.9
643.9
643.9
643.9
643.9
643.9
643.9
643.9
643.9
643.9
643.9
643.9
643.9
643.9
643.9
643.9
643.9
643.9
643.9
643.9
643.9
643.9
643.9
643.9
643.9
643.9
643.9
643.9
643.9
643.9
643.9
643.9
643.9
643.9
643.9
643.9
643.9
643.9
643.9
643.9
643.9
643.9
643.9
643.9
643.9
643.9
643.9
643.9
643.9
643.9
643.9
643.9
643.9
643.9
643.9
643.9
643.9
643.9
643.9
643.9
643.9
643.9
643.9
643.9
643.9
643.9
643.9
643.9
643.9
643.9
643.9
643.9
643.9
643.9
643.9
643.9
643.9
643.9
643.9
643.9
643.9
643.9
643.9
643.9
643.9
643.9
643.9
643.9
643.9
643.9
643.9
643.9
643.9
643.9
643.9
643.9
643.9
643.9
643.9
643.9
643.9
643.9
643.9
643.9
643.9
643.9
643.9
643.9
643.9
643.9
643.9
643.9
643.9
643.9
643.9
643.9
643.9
643.9
643.9
643.9
643.9
643.9
643.9
643.9
643.9
643.9
643.9
643.9
643.9
643.9
643.9
643.9
643.9
643.9
643.9
643.9
643.9
643.9
643.9
643.9
643.9
643.9
643.9
643.9
643.9
643.9
643.9
643.9
643.9
643.9
643.9
643.9
643.9
643.9
643.9
643.9
643.9
643.9
643.9
643.9
643.9
643.9
643.9
643.9
643.9
643.9
643.9
643.9
643.9
643.9
643.9
643.9
643.9
643.9
643.9
643.9
643.9
643.9
643.9
643.9
643.9
643.9
643.9
643.9
643.9
643.9
643.9
643.9
643.9
643.9
643.9
643.9
643.9
643.9
643.9
643.9
643.9
643.9
643.9
643.9
643.9
643.9
643.9
643.9
643.9
643.9
643.9
643.9
643.9
643.9
643.9
643.9
643.9
643.9
643.9
643.9
643.9
643.9
643.9
643.9
643.9
643.9
643.9
643.9
643.9
643.9
643.9
643.9
643.9
643.9
643.9
643.9
643.9
643.9
643.9
643.9
643.9
643.9
643.9
643.9
643.9
643.9
643.9
643.9
643.9
643.9
643.9
643.9
643.9
643.9
643.9
643.9
643.9
643.9
643.9
643.9
643.9
643.9
643.9
643.9
643.9
643.9
643.9
643.9
643.9
643.9
643.9
636.3
636.3
636.3
636.3
636.3
636.2
636.2
636.2
636.2
636.2
636.2
636.2
636.2
636.2
636.2
636.2
636.2
636.2
636.2
636.2
636.2
636.2
636.2
636.2
636.2
636.2
636.2
636.2
636.2
636.2
636.2
636.2
636.2
636.2
636.2
636.2
636.2
636.2
636.2
636.2
636.2
636.2
636.2
636.2
636.2
636.2
636.2
636.2
636.2
636.2
636.2
636.2
636.2
636.2
636.2
636.2
636.2
636.2
636.2
636.2
636.2
636.2
636.2
636.2
636.2
636.2
636.2
636.2
636.2
636.2
636.2
636.2
636.2
636.2
636.2
636.2
636.2
636.2
636.2
636.2
636.2
636.2
636.2
636.2
636.2
636.2
636.2
636.2
636.2
636.2
636.2
636.2
636.2
636.2
636.2
636.2
636.2
636.2
636.2
636.2
636.2
636.2
636.2
636.2
636.2
636.2
636.2
636.2
636.2
636.2
636.2
636.2
636.2
636.2
636.2
636.2
636.2
636.2
636.2
636.2
636.2
636.2
636.2
636.2
636.2
636.2
636.2
636.2
636.2
636.2
636.2
636.2
636.2
636.2
636.2
636.2
636.2
636.2
636.2
636.2
636.2
636.2
636.2
636.2
636.2
636.2
636.2
636.2
636.2
636.2
636.2
636.2
636.2
636.2
636.2
636.2
636.2
636.2
636.2
636.2
636.2
636.2
636.2
636.2
636.2
636.2
636.2
636.2
636.2
636.2
636.2
636.2
636.2
636.2
636.2
636.2
636.2
636.2
636.2
636.2
636.2
636.2
636.2
636.2
636.2
636.2
636.2
636.2
636.2
636.2
636.2
636.2
636.2
636.2
636.2
636.2
636.2
636.2
636.2
636.2
636.2
636.2
636.2
636.2
636.2
636.2
636.2
636.2
636.2
636.2
636.2
636.2
636.2
636.2
636.2
636.2
636.2
636.2
636.2
636.2
636.2
636.2
636.2
636.2
636.2
636.2
636.2
636.2
636.2
636.2
636.2
636.2
636.2
636.2
636.2
636.2
636.2
636.2
636.2
636.2
636.2
636.2
636.2
636.2
636.2
636.2
636.2
636.2
636.2
636.2
636.2
636.2
636.2
636.2
636.2
636.2
636.2
636.2
636.2
636.2
636.2
636.2
636.2
636.2
636.2
636.2
636.2
636.2
636.2
636.2
636.2
636.2
636.2
636.2
636.2
636.2
636.2
636.2
636.2
636.2
636.2
636.2
636.2
636.2
636.2
636.2
636.2
636.2
636.2
636.2
636.2
636.2
636.2
636.2
636.2
636.2
636.2
636.2
636.2
636.2
636.2
636.2
636.2
636.2
636.2
636.2
636.2
636.2
636.2
636.2
636.2
636.2
636.2
636.2
636.2
636.2
636.2
636.2
636.2
636.2
636.2
636.2
636.2
636.2
636.2
636.2
636.2
636.2
636.2
636.2
636.2
636.2
636.2
636.2
636.2
636.2
636.2
636.2
636.2
636.2
636.2
636.2
636.2
636.2
636.2
636.2
636.2
636.2
636.2
636.2
636.2
636.2
636.2
636.2
636.2
636.2
636.2
636.2
636.2
636.2
636.2
636.2
636.2
636.2
636.2
636.2
636.2
636.2
636.2
636.2
636.1
636.1
636.1
636.1
636.1
636.1
636.1
636.1
636.1
636.1
636.1
636.1
636.1
636.1
636.1
636.1
636.1
636.1
636.1
636.1
636.1
636.1
636.1
636.1
636.1
636.1
636.1
636.1
636.1
636.1
636.1
636.1
636.1
636.1
636.1
636.1
636.1
636.1
636.1
636.1
636.1
636.1
636.1
636.1
636.1
636.1
636.1
636.1
636.1
636.1
636.1
636.1
636.1
636.1
636.1
636.1
636.1
636.1
636.1
636.1
636.1
636.1
636.1
636.1
636.1
636.1
636.1
636.1
636.1
636.1
636.1
636.1
636.1
636.1
636.1
636.1
636.1
636.1
636.1
636.1
636.1
636.1
636.1
636.1
636.1
636.1
636.1
636.1
636.1
636.1
636.1
636.1
636.1
636.1
636.1
636.1
636.1
636.1
636.1
636.1
636.1
636.1
636.1
636.1
636.1
636.1
636.1
636.1
636.1
636.1
636.1
636.1
636.1
636.1
636.1
636.1
636.1
636.1
636.1
636.1
636.1
636.1
636.1
636.1
636.1
636.1
636.1
636.1
636.1
636.1
636.1
636.1
636.1
636.1
636.1
636.1
636.1
636.1
636.1
636.1
636.1
636.1
636.1
636.1
636.1
636.1
636.1
636.1
636.1
636.1
636.1
636.1
636.1
636.1
636.1
636.1
636.1
636.1
636.1
636.1
636.1
636.1
636.1
636.1
636.1
636.1
636.1
636.1
636.1
636.1
636.1
636.1
636.1
636.1
636.1
636.1
636.1
636.1
636.1
636.1
636.1
636.1
636.1
636.1
636.1
636.1
636.1
636.1
636.1
636.1
636.1
636.1
636.1
636.1
636.1
636.1
636.1
636.1
636.1
636.1
636.1
636.1
636.1
636.1
636.1
636.1
636.1
636.1
636.1
636.1
636.1
636.1
636.1
636.1
636.1
636.1
636.1
636.1
636.1
636.1
636.1
636.1
636.1
636.1
636.1
636.1
636.1
636.1
636.1
636.1
636.1
636.1
636.1
636.1
636.1
636.1
636.1
636.1
636.1
636.1
636.1
636.1
636.1
636.1
636.1
636.1
636.1
636.1
636.1
636.1
636.1
636.1
636.1
636.1
636.1
636.1
636.1
636.1
636.1
636.1
636.1
636.1
636.1
636.1
636.1
636.1
636.1
636.1
636.1
636.1
636.1
636.1
636.1
636.1
636.1
636.1
636.1
636.1
636.1
636.1
636.1
636.1
636.1
636.1
636.1
636.1
636.1
636.1
636.1
636.1
636.1
636.1
636.1
636.1
636.1
636.1
636.1
636.1
636.1
636.1
636.1
636.1
636.1
636.1
636.1
636.1
636.1
636.1
636.1
636.1
635.7
635.7
635.7
635.7
635.7
635.7
635.7
635.7
635.7
635.7
635.7
635.7
635.7
635.7
635.7
635.7
635.7
635.7
635.7
635.7
635.7
635.7
635.7
635.7
635.7
635.7
635.7
635.7
635.7
635.7
635.7
635.7
635.7
635.7
635.7
635.7
635.7
635.7
635.7
635.7
635.7
635.7
635.7
635.7
635.7
635.7
635.7
635.7
635.7
635.7
635.7
635.7
635.7
635.7
635.7
635.7
635.7
635.7
635.7
635.7
635.7
635.7
635.7
635.7
635.7
635.7
635.7
635.7
635.7
635.7
635.7
635.7
635.7
635.7
635.7
635.7
635.7
635.7
635.7
635.7
635.7
635.7
635.7
635.7
635.7
635.7
635.7
635.7
635.7
635.7
635.7
635.7
635.7
635.7
635.7
635.7
635.7
635.7
635.7
635.7
635.7
635.7
635.7
635.7
635.7
635.7
635.7
635.7
635.7
635.7
635.7
635.7
635.7
635.7
635.7
635.7
635.7
635.7
635.7
635.7
635.7
635.7
635.7
635.7
635.7
635.7
635.7
635.7
635.7
635.7
635.7
635.7
635.7
635.7
635.7
635.7
635.7
635.7
635.7
635.7
635.7
635.7
635.7
635.7
635.7
635.7
635.7
635.7
635.7
635.7
635.7
635.7
635.7
635.7
635.7
635.7
635.7
635.7
635.7
635.7
635.7
635.7
635.7
635.7
635.7
635.7
635.7
635.7
635.7
635.7
635.7
635.7
635.7
635.7
635.7
635.7
635.7
635.7
635.7
635.7
635.7
635.7
635.7
635.7
635.7
635.7
635.7
635.7
635.7
635.7
635.7
635.7
635.7
635.7
635.7
635.7
635.7
635.7
635.7
635.7
635.7
635.7
635.7
635.7
635.7
635.7
635.7
635.7
635.7
635.7
635.7
635.7
635.7
635.7
635.7
635.7
635.7
635.7
635.7
635.7
635.7
635.7
635.7
635.7
635.7
635.7
635.7
635.7
635.7
635.7
635.7
635.7
635.7
635.7
635.7
635.7
635.7
635.7
635.7
635.7
635.7
635.7
635.7
635.7
635.7
635.7
635.7
635.7
635.7
635.7
635.7
635.7
635.7
635.7
635.7
635.7
635.7
635.7
635.7
635.7
635.7
635.7
635.7
635.7
635.7
635.7
635.7
635.7
635.7
635.7
635.7
635.7
635.7
635.7
635.7
635.7
635.7
635.7
635.7
635.7
635.7
635.7
635.7
635.7
635.7
635.7
635.7
635.7
635.7
635.7
635.7
635.7
635.7
635.7
635.7
635.7
635.7
635.7
631.3
631.3
631.3
631.3
631.3
631.3
631.3
631.3
631.3
631.3
631.3
631.3
631.3
631.3
631.3
631.3
631.3
631.3
631.3
631.3
631.3
631.3
631.3
631.3
631.3
631.3
631.3
631.3
631.3
631.3
631.3
631.3
631.3
631.3
631.3
631.3
631.3
631.3
631.3
631.3
631.3
631.3
631.3
631.3
631.3
631.3
631.3
631.3
631.3
631.3
631.3
631.3
631.3
631.3
631.3
631.3
631.3
631.3
631.3
631.3
631.3
631.3
631.3
631.3
631.3
631.3
631.3
631.3
631.3
631.3
631.3
631.3
631.3
631.3
631.3
631.3
631.3
631.3
631.3
631.3
631.3
631.3
631.3
631.3
631.3
631.3
631.3
631.3
631.3
626.1
626.1
626.1
626.1
626.1
626.1
626.1
626.1
626.1
626.1
626.1
626.1
626.1
626.1
626.1
626.1
626.1
626.1
626.1
626.1
626.1
626.1
626.1
626.1
626.1
626.1
626.1
626.1
626.1
626.1
626.1
626.1
626.1
626.1
626.1
626.1
626.1
626.1
626.1
626.1
626.1
626.1
626.1
626.1
626.1
626.1
626.1
626.1
626.1
626.1
626.1
626.1
626.1
626.1
626.1
626.1
626.1
626.1
626.1
626.1
626.1
626.1
626.1
626.1
626.1
626.1
626.1
626.1
626.1
626.1
626.1
626.1
626.1
626.1
626.1
626.1
626.1
626.1
626.1
626.1
626.1
626.1
626.1
626.1
626.1
626.1
626.1
626.1
626.1
626.1
626.1
626.1
626.1
626.1
626.1
626.1
626.1
626.1
626.1
626.1
626.1
626.1
626.1
626.1
626.1
626.1
626.1
626.1
626.1
626.1
626.1
626.1
626.1
626.1
626.1
626.1
626.1
626.1
626.1
626.1
626.1
626.1
626.1
626.1
626.1
626.1
626.1
626.1
626.1
626.1
626.1
626.1
626.1
626.1
626.1
626.1
626.1
626.1
626.1
626.1
626.1
626.1
626.1
626.1
626.1
626.1
626.1
626.1
626.1
626.1
626.1
626.1
626.1
626.1
626.1
626.1
626.1
626.1
626.1
626.1
626.1
626.1
626.1
626.1
626.1
626.1
626.1
626.1
626.1
626.1
626.1
626.1
626.1
626.1
626.1
626.1
626.1
626.1
626.1
626.1
626.1
626.1
626.1
626.1
626.1
626.1
626.1
626.1
626.1
626.1
626.1
626.1
626.1
626.1
626.1
626.1
626.1
626.1
626.1
626.1
626.1
626.1
626.1
626.1
626.1
626.1
626.1
626.1
626.1
626.1
626.1
626.1
626.1
626.1
626.1
626.1
626.1
626.1
626.1
626.1
626.1
626.1
626.1
626.1
626.1
626.1
626.1
626.1
626.1
626.1
626.1
626.1
626.1
626.1
626.1
626.1
626.1
626.1
626.1
626.1
626.1
626.1
626.1
626.1
626.1
626.1
626.1
626.1
626.1
626.1
626.1
626.1
626.1
626.1
626.1
626.1
626.1
626.1
626.1
626.1
626.1
626.1
626.1
626.1
626.1
626.1
626.1
626.1
626.1
626.1
626.1
626.1
626.1
626.1
626.1
626.1
626.1
626.1
626.1
626.1
626.1
626.1
626.1
626.1
626.1
626.1
626.1
626.1
626.1
626.1
626.1
626.1
626.1
626.1
626.1
626.1
626.1
626.1
626.1
626.1
626.1
626.1
626.1
626.1
626.1
626.1
626.1
626.1
626.1
626.1
626.1
626.1
626.1
626.1
626.1
626.1
626.1
626.1
626.1
626.1
626.1
626.1
626.1
626.1
626.1
626.1
626.1
626.1
626.1
626.1
626.1
626.1
626.1
626.1
626.1
626.1
626.1
626.1
626.1
626.1
626.1
626.1
626.1
626.1
626.1
626.1
626.1
626.1
626.1
626.1
626.1
626.1
626.1
626.1
626.1
626.1
626.1
626.1
626.1
626.1
626.1
626.1
626.1
626.1
626.1
626.1
626.1
626.1
626.1
626.1
626.1
626.1
626.1
626.1
626.1
626.1
626.1
626.1
626.1
626.1
626.1
626.1
626.1
626.1
626.1
626.1
626.1
626.1
626.1
626.1
626.1
626.1
626.1
626.1
626.1
626.1
626.1
626.1
626.1
626.1
626.1
626.1
626.1
626.1
626.1
626.1
626.1
626.1
626.1
626.1
626.1
626.1
626.1
626.1
626.1
626.1
626.1
626.1
626.1
626.1
626.1
626.1
626.1
626.1
626.1
626.1
626.1
626.1
626.1
626.1
626.1
626.1
626.1
626.1
626.1
626.1
626.1
626.1
626.1
626.1
626.1
626.1
626.1
626.1
626.1
626.1
626.1
626.1
626.1
626.1
626.1
626.1
626.1
626.1
626.1
626.1
626.1
626.1
626.1
626.1
626.1
626.1
626.1
626.1
626.1
626.1
626.1
626.1
626.1
626.1
626.1
626.1
626.1
626.1
626.1
626.1
626.1
626.1
626.1
626.1
626.1
626.1
626.1
626.1
626.1
626.1
626.1
626.1
626.1
626.1
626.1
626.1
626.1
626.1
626.1
626.1
626.1
626.1
626.1
626.1
626.1
626.1
626.1
626.1
626.1
626.1
626.1
626.1
626.1
626.1
626.1
626.1
626.1
626.1
626.1
626.1
626.1
626.1
626.1
626.1
626.1
626.1
626.1
626.1
626.1
626.1
626.1
626.1
626.1
626.1
626.1
626.1
626.1
626.1
626.1
626.1
626.1
626.1
626.1
626.1
626.1
626.1
626.1
626.1
626.1
626.1
626.1
626.1
626.1
626.1
626.1
626.1
626.1
626.1
626.1
626.1
626.1
626.1
626.1
626.1
626.1
626.1
626.1
626.1
626.1
626.1
626.1
626.1
626.1
626.1
626.1
626.1
626.1
626.1
626.1
626.1
626.1
626.1
626.1
626.1
626.1
626.1
626.1
626.1
626.1
626.1
626.1
626.1
626.1
626.1
626.1
626.1
626.1
626.1
626.1
626.1
626.1
626.1
626.1
626.1
626.1
626.1
626.1
626.1
626.1
626.1
626.1
626.1
626.1
626.1
626.1
626.1
626.1
626.1
626.1
626.1
626.1
626.1
626.1
626.1
626.1
626.1
626.1
626.1
626.1
626.1
626.1
626.1
626.1
626.1
626.1
626.1
626.1
626.1
626.1
626.1
626.1
626.1
626.1
626.1
626.1
626.1
626.1
626.1
626.1
626.1
626.1
626.1
626.1
626.1
626.1
626.1
626.1
626.1
626.1
626.1
626.1
626.1
626.1
626.1
626.1
626.1
626.1
626.1
626.1
626.1
626.1
626.1
626.1
626.1
626.1
626.1
626.1
626.1
626.1
626.1
626.1
626.1
626.1
626.1
626.1
626.1
626.1
626.1
626.1
626.1
626.1
626.1
626.1
626.1
626.1
626.1
626.1
626.1
626.1
626.1
626.1
626.1
626.1
626.1
626.1
626.1
626.1
626.1
626.1
626.1
626.1
626.1
626.1
626.1
626.1
626.1
626.1
626.1
626.1
626.1
626.1
626.1
626.1
626.1
626.1
626.1
626.1
626.1
626.1
626.1
626.1
626.1
626.1
626.1
626.1
626.1
626.1
626.1
626.1
626.1
626.1
626.1
626.1
626.1
626.1
626.1
626.1
626.1
626.1
626.1
626.1
626.1
626.1
626.1
626.1
626.1
626.1
626.1
626.1
626.1
626.1
626.1
626.1
626.1
626.1
626.1
626.1
626.1
626.1
626.1
626.1
626.1
626.1
626.1
626.1
626.1
626.1
626.1
626.1
626.1
626.1
626.1
626.1
626.1
626.1
626.1
626.1
626.1
626.1
626.1
626.1
626.1
626.1
626.1
626.1
626.1
626.1
626.1
626.1
626.1
626.1
626.1
626.1
626.1
626.1
626.1
626.1
626.1
626.1
626.1
626.1
626.1
626.1
626.1
626.1
626.1
626.1
626.1
626.1
626.1
626.1
626.1
626.1
626.1
626.1
626.1
626.1
626.1
626.1
626.1
626.1
626.1
626.1
626.1
626.1
626.1
626.1
626.1
626.1
626.1
626.1
626.1
626.1
626.1
626.1
626.1
626.1
626.1
626.1
626.1
626.1
626.1
626.1
626.1
626.1
626.1
626.1
626.1
626.1
626.1
626.1
626.1
626.1
626.1
626.1
626.1
626.1
626.1
626.1
626.1
626.1
626.1
626.1
626.1
626.1
626.1
626.1
626.1
626.1
626.1
626.1
626.1
626.1
626.1
626.1
626.1
626.1
626.1
626.1
626.1
626.1
626.1
626.1
626.1
626.1
626.1
626.1
626.1
626.1
626.1
626.1
626.1
626.1
626.1
626.1
626.1
626.1
626.1
626.1
626.1
626.1
626.1
626.1
626.1
626.1
626.1
626.1
626.1
626.1
626.1
626.1
626.1
626.1
626.1
626.1
626.1
626.1
626.1
626.1
626.1
626.1
626.1
626.1
626.1
626.1
626.1
626.1
626.1
626.1
626.1
626.1
626.1
626.1
626.1
626.1
626.1
626.1
626.1
626.1
626.1
626.1
626.1
626.1
626.1
626.1
626.1
626.1
626.1
626.1
626.1
626.1
626.1
626.1
626.1
626.1
626.1
626.1
626.1
626.1
626.1
626.1
626.1
626.1
626.1
626.1
626.1
626.1
626.1
626.1
626.1
626.1
626.1
626.1
626.1
626.1
626.1
626.1
626.1
626.1
626.1
626.1
626.1
626.1
626.1
626.1
626.1
626.1
626.1
626.1
626.1
626.1
626.1
626.1
626.1
